(set-info :smt-lib-version 2.6)
(set-logic QF_SLIA)
(set-info :source |
Generated by: Denghang Hu
Generated on: 2023-04-14
Application: Evaluate string solvers
Target solver: Ostrich, Z3str3, CVC5
Description: The instance consists of:
(1) a regular membership predicate from the real world
(2) a regular membership predicate to sanitize danger letters in javascript such as <,>,&,",'
(3) a lower bound for string length
|)
(set-info :license "https://creativecommons.org/licenses/by/4.0/")
(set-info :category "industrial")
(set-info :status unknown)
        ;test regex perl -0777 -i -pe "s/(-name\\s*riak@).*/\${1}$riak_ip/g" vm.args
(declare-const X String)
(assert (str.in_re X (re.++ (re.++ (str.to_re "p") (re.++ (str.to_re "e") (re.++ (str.to_re "r") (re.++ (str.to_re "l") (re.++ (str.to_re " ") (re.++ (str.to_re "-") (re.++ (str.to_re "0777") (re.++ (str.to_re " ") (re.++ (str.to_re "-") (re.++ (str.to_re "i") (re.++ (str.to_re " ") (re.++ (str.to_re "-") (re.++ (str.to_re "p") (re.++ (str.to_re "e") (re.++ (str.to_re " ") (re.++ (str.to_re "\u{22}") (re.++ (str.to_re "s") (re.++ (str.to_re "/") (re.++ (re.++ (str.to_re "-") (re.++ (str.to_re "n") (re.++ (str.to_re "a") (re.++ (str.to_re "m") (re.++ (str.to_re "e") (re.++ (str.to_re "\\") (re.++ (re.* (str.to_re "s")) (re.++ (str.to_re "r") (re.++ (str.to_re "i") (re.++ (str.to_re "a") (re.++ (str.to_re "k") (str.to_re "@")))))))))))) (re.++ (re.* (re.diff re.allchar (str.to_re "\n"))) (re.++ (str.to_re "/") ((_ re.loop 1 1) (str.to_re "$"))))))))))))))))))))))) (re.++ (str.to_re "") (re.++ (str.to_re "r") (re.++ (str.to_re "i") (re.++ (str.to_re "a") (re.++ (str.to_re "k") (re.++ (str.to_re "_") (re.++ (str.to_re "i") (re.++ (str.to_re "p") (re.++ (str.to_re "/") (re.++ (str.to_re "g") (re.++ (str.to_re "\u{22}") (re.++ (str.to_re " ") (re.++ (str.to_re "v") (re.++ (str.to_re "m") (re.++ (re.diff re.allchar (str.to_re "\n")) (re.++ (str.to_re "a") (re.++ (str.to_re "r") (re.++ (str.to_re "g") (str.to_re "s"))))))))))))))))))))))
; sanitize danger characters:  < > ' " &
(assert (not (str.in_re X (re.++ re.all (re.union (str.to_re "\u{3c}") (str.to_re "\u{3e}") (str.to_re "\u{27}") (str.to_re "\u{22}") (str.to_re "\u{26}")) re.all))))
(assert (< 20 (str.len X)))
(check-sat)
(exit)
